HUN,8,6,517
3,26,4,29,2,26,1,23,0,21,5,23
4,29,1,29,0,30,5,30,3,28,2,24
3,26,0,24,5,21,4,23,1,30,2,23
3,23,0,28,4,29,1,21,5,22,2,27
5,30,4,26,0,23,2,29,3,29,1,25
2,21,4,24,3,25,5,22,0,29,1,26
0,22,3,21,1,25,5,22,2,24,4,30
5,26,3,24,2,25,1,27,0,26,4,29
